50
    1   165   155
    2   266   256
    3   406   396
    4   402   392
    5   356   346
    6   396   386
    7   437   427
    8   292   282
    9    18     8
   10    77    67
   11   175   165
   12   101    91
   13   491   481
   14    29    19
   15   105    95
   16   175   165
   17   403   393
   18   122   112
   19   332   322
   20   202   192
   21   505   495
   22   251   241
   23   189   179
   24    19     9
   25   106    96
   26   151   141
   27   266   256
   28   510   500
   29   238   228
   30   351   341
   31    38    28
   32   404   394
   33   155   145
   34    34    24
   35   198   188
   36   494   484
   37   471   461
   38   242   232
   39   400   390
   40   349   339
   41   287   277
   42   149   139
   43    21    11
   44   495   485
   45   166   156
   46   152   142
   47    24    14
   48    68    58
   49   466   456
   50   345   335
9995
